Version identifier: 22.1.1.0 | 2022-11-28 | 9160aff4d
CPXPARAM_ClockType                               1
CPXPARAM_Read_DataCheck                          1
CPXPARAM_Threads                                 1
CPXPARAM_Simplex_Tolerances_Optimality           1.0000000000000001e-09
CPXPARAM_TimeLimit                               7200
CPXPARAM_MIP_Tolerances_AbsMIPGap                0
CPXPARAM_MIP_Tolerances_MIPGap                   0
CPXPARAM_MIP_Tolerances_Integrality              0
Found incumbent of value 0.000000 after 0.42 sec. (184.37 ticks)
Tried aggregator 2 times.
Aggregator has done 138 substitutions...
MIQP Presolve eliminated 1428379 rows and 419 columns.
MIQP Presolve modified 252060 coefficients.
Aggregator did 138 substitutions.
Reduced MIQP has 2169080 rows, 58831 columns, and 8831340 nonzeros.
Reduced MIQP has 44123 binaries, 14708 generals, 0 SOSs, and 0 indicators.
Reduced MIQP objective Q matrix has 14708 nonzeros.
Presolve time = 274.71 sec. (116828.35 ticks)
Probing time = 0.34 sec. (27.10 ticks)
Tried aggregator 1 time.
Presolve has eliminated 0 rows and 0 columns...
Reduced MIQP has 2169080 rows, 58831 columns, and 8831340 nonzeros.
Reduced MIQP has 44123 binaries, 14708 generals, 0 SOSs, and 0 indicators.
Reduced MIQP objective Q matrix has 14708 nonzeros.
Presolve time = 44.10 sec. (12067.51 ticks)
Classifier predicts products in MIQP should be linearized.
Probing time = 0.33 sec. (27.10 ticks)
Clique table members: 2109927.
MIP emphasis: balance optimality and feasibility.
MIP search method: dynamic search.
Parallel mode: none, using 1 thread.
Root relaxation solution time = 2711.60 sec. (1645963.64 ticks)

        Nodes                                         Cuts/
   Node  Left     Objective  IInf  Best Integer    Best Bound    ItCnt     Gap

*     0+    0                            0.0000    58832.0000              --- 

Root node processing (before b&c):
  Real time             = 3038.48 sec. (1777349.83 ticks)
Sequential b&c:
  Real time             =    0.00 sec. (0.00 ticks)
                          ------------
Total (root+branch&cut) = 3038.48 sec. (1777349.83 ticks)
Traceback (most recent call last):
  File "/scratch/scherif/DiverseSAT-journal_sup/DiverseSAT_Supplementary_Experiments/experiment-1/cplex/jobs/../solvers/CPLEX-QP-SE.py", line 108, in <module>
    prob.solve()
  File "/users/scherif/.local/lib/python3.9/site-packages/cplex/__init__.py", line 1304, in solve
    _proc.mipopt(self._env._e, self._lp)
  File "/users/scherif/.local/lib/python3.9/site-packages/cplex/_internal/_procedural.py", line 708, in mipopt
    check_status(env, status)
  File "/users/scherif/.local/lib/python3.9/site-packages/cplex/_internal/_procedural.py", line 249, in __call__
    raise CplexSolverError(error_string, env, status)
cplex.exceptions.errors.CplexSolverError: CPLEX Error  1001: Out of memory.
